 0, 12, 18, 10, 25, 14, 20, 16
12,  0,  9, 22, 17, 19, 11, 24
18,  9,  0, 15, 14, 21, 13, 20
10, 22, 15,  0, 27, 16, 19, 11
25, 17, 14, 27,  0, 23, 12, 18
14, 19, 21, 16, 23,  0, 26, 10
20, 11, 13, 19, 12, 26,  0, 15
16, 24, 20, 11, 18, 10, 15,  0
